Route #1: 74 13 31 17 69 105 64 94 57
Route #2: 21 54 85 77 83 2 40 63 82
Route #3: 96 45 100 51 60 76 44 5
Route #4: 29 72 34 11 99 49 71
Route #5: 53 103 101 28 93 97 43 87
Route #6: 67 48 8 36 91 88 58 14
Route #7: 1 104 12 9 84 75 7
Route #8: 62 26 90 24 102 92 52
Route #9: 78 19 27 37 79 46 66 15
Route #10: 33 22
Route #11: 56 20 16 10 41 18 86
Route #12: 35 73 32 3 23 42 30 89 59
Route #13: 39 50 81 6 70 4 98 55
Route #14: 25 47 61 80 65 38 95 68
Cost 26376
